7
2147483647 49 21 53 61 92 64 
49 2147483647 77 88 84 55 60 
21 77 2147483647 17 40 19 3 
53 88 17 2147483647 4 3 86 
61 84 40 4 2147483647 14 22 
92 55 19 3 14 2147483647 8 
64 60 3 86 22 8 2147483647 
